21814.0
5,1124,1492,1527,1106,1613,1456,1523,1341,669,1987,1972,1630,1567,850,1007,565,487,379,432,141,1220,454,1942,883,880,1614,302,1642,545,589,1287,422,1695,1968,76,503,1599,1978,1853,1555,1136,1623,1550,1411,1451,323,849,475,89,157,1416,1849,1731,1192,1139,12,1186,1206,546,694,1471,490,1772,375,1385,598,924,767,1097,1198,1100,1890,472,1189,938,1993,271,169,29,391,1561,1193,1660,1984,498,423,668,1344,1261,1353,1835,1286,1733,1464,1945,721,1351,946,895,106,583,959,1540,524,637,1689,1146,1615,838,1474,1899,1617,292,852,1302,1657,20,1267,242
